multiobj/instances/reallike/Ter-rl-5-2-0.80-1.0-2.in
5 2
0 46 118 40 96 
46 0 88 10 53 
118 88 0 85 53 
40 10 85 0 56 
96 53 53 56 0 
0 1 0 0 2684 
1 0 0 53 24 
0 0 0 1330 92446 
0 53 1330 0 0 
2684 24 92446 0 0 
0 84 0 0 47 
84 0 0 40 27 
0 0 0 7761 6285 
0 40 7761 0 0 
47 27 6285 0 0 
