multiobj/solutions/reallike/Ter-rl-5-2-0.80-1.0-2.out
5 2
0 2 1 4 3 
2214554 980780 
4 2 3 0 1 
2256662 774658 
2 4 3 0 1 
2440530 774298 
4 2 3 1 0 
7952706 689360 
2 4 3 1 0 
8066036 687440 
